(declare-fun var0 () String)
(assert (str.in.re var0 (re.++ (re.* (re.* (str.to.re """"))) (re.++ (re.* (re.union (str.to.re "ZZ") (str.to.re "!"))) (re.++ (re.union (re.+ (str.to.re "XXX")) (re.+ (str.to.re "YY"))) (re.++ (re.union (re.union (str.to.re "U") (str.to.re "V")) (re.* (str.to.re "WW"))) (re.++ (re.* (re.union (str.to.re "S") (str.to.re "T"))) (re.++ (re.* (re.+ (str.to.re "RRR"))) (re.++ (re.* (re.+ (str.to.re "Q"))) (re.++ (re.* (re.* (str.to.re "P"))) (re.++ (re.+ (re.+ (str.to.re "OOO"))) (re.++ (re.+ (re.union (str.to.re "MM") (str.to.re "N"))) (re.++ (re.+ (re.+ (str.to.re "LL"))) (re.++ (re.+ (re.* (str.to.re "KKK"))) (re.++ (re.* (re.+ (str.to.re "J"))) (re.++ (re.* (re.+ (str.to.re "I"))) (re.++ (re.union (re.union (str.to.re "EE") (str.to.re "F")) (re.union (str.to.re "GGG") (str.to.re "H"))) (re.++ (re.* (re.* (str.to.re "DD"))) (re.++ (re.* (re.+ (str.to.re "C"))) (re.++ (re.* (re.* (str.to.re "BB"))) (re.++ (re.* (re.+ (str.to.re "AAA"))) (re.++ (re.+ (re.union (str.to.re "yyy") (str.to.re "zz"))) (re.++ (re.union (re.* (str.to.re "w")) (re.+ (str.to.re "x"))) (re.++ (re.union (re.* (str.to.re "uu")) (re.* (str.to.re "vvv"))) (re.++ (re.* (re.+ (str.to.re "tt"))) (re.++ (re.+ (re.* (str.to.re "ss"))) (re.++ (re.union (re.* (str.to.re "p")) (re.union (str.to.re "q") (str.to.re "rrr"))) (re.++ (re.union (re.* (str.to.re "mmm")) (re.union (str.to.re "n") (str.to.re "ooo"))) (re.++ (re.* (re.+ (str.to.re "lll"))) (re.++ (re.+ (re.union (str.to.re "jj") (str.to.re "k"))) (re.++ (re.* (re.+ (str.to.re "i"))) (re.++ (re.union (re.* (str.to.re "ggg")) (re.* (str.to.re "hhh"))) (re.++ (re.union (re.+ (str.to.re "eee")) (re.+ (str.to.re "ff"))) (re.++ (re.union (re.+ (str.to.re "ccc")) (re.* (str.to.re "dd"))) (re.++ (re.union (re.* (str.to.re "aaa")) (re.* (str.to.re "bbb"))) (re.++ (re.+ (re.* (str.to.re "999"))) (re.++ (re.union (re.* (str.to.re "6")) (re.union (str.to.re "77") (str.to.re "888"))) (re.++ (re.* (re.+ (str.to.re "5"))) (re.++ (re.union (re.* (str.to.re "3")) (re.* (str.to.re "444"))) (re.++ (re.union (re.* (str.to.re "11")) (re.+ (str.to.re "2"))) (re.+ (re.+ (str.to.re "0")))))))))))))))))))))))))))))))))))))))))))
(check-sat)